(set-logic QF_LRA)
(declare-fun X0 () Real )
(declare-fun Y0 () Real )
(declare-fun X1 () Real )
(declare-fun Y1 () Real )
(declare-fun X2 () Real )
(declare-fun Y2 () Real )
(declare-fun X3 () Real )
(declare-fun Y3 () Real )
(declare-fun X4 () Real )
(declare-fun Y4 () Real )
(declare-fun X5 () Real )
(declare-fun Y5 () Real )
(declare-fun X6 () Real )
(declare-fun Y6 () Real )
(declare-fun X7 () Real )
(declare-fun Y7 () Real )
(declare-fun X8 () Real )
(declare-fun Y8 () Real )
(declare-fun X9 () Real )
(declare-fun Y9 () Real )
(declare-fun X10 () Real )
(declare-fun Y10 () Real )
(declare-fun X11 () Real )
(declare-fun Y11 () Real )
(declare-fun X12 () Real )
(declare-fun Y12 () Real )
(declare-fun X13 () Real )
(declare-fun Y13 () Real )
(declare-fun X14 () Real )
(declare-fun Y14 () Real )
(declare-fun X15 () Real )
(declare-fun Y15 () Real )
(declare-fun X16 () Real )
(declare-fun Y16 () Real )
(declare-fun X17 () Real )
(declare-fun Y17 () Real )
(declare-fun Z () Real )
(assert ( and  
( or ( <= ( + X0 36 ) X1 )  ( <= ( + X1 26 ) X0 )  ( <= ( + Y0 31 ) Y1 )  ( <= ( + Y1 80 ) Y0 )  )
( or ( <= ( + X0 36 ) X2 )  ( <= ( + X2 65 ) X0 )  ( <= ( + Y0 31 ) Y2 )  ( <= ( + Y2 29 ) Y0 )  )
( or ( <= ( + X0 36 ) X3 )  ( <= ( + X3 50 ) X0 )  ( <= ( + Y0 31 ) Y3 )  ( <= ( + Y3 62 ) Y0 )  )
( or ( <= ( + X0 36 ) X4 )  ( <= ( + X4 91 ) X0 )  ( <= ( + Y0 31 ) Y4 )  ( <= ( + Y4 41 ) Y0 )  )
( or ( <= ( + X0 36 ) X5 )  ( <= ( + X5 51 ) X0 )  ( <= ( + Y0 31 ) Y5 )  ( <= ( + Y5 78 ) Y0 )  )
( or ( <= ( + X0 36 ) X6 )  ( <= ( + X6 60 ) X0 )  ( <= ( + Y0 31 ) Y6 )  ( <= ( + Y6 66 ) Y0 )  )
( or ( <= ( + X0 36 ) X7 )  ( <= ( + X7 22 ) X0 )  ( <= ( + Y0 31 ) Y7 )  ( <= ( + Y7 69 ) Y0 )  )
( or ( <= ( + X0 36 ) X8 )  ( <= ( + X8 74 ) X0 )  ( <= ( + Y0 31 ) Y8 )  ( <= ( + Y8 28 ) Y0 )  )
( or ( <= ( + X0 36 ) X9 )  ( <= ( + X9 27 ) X0 )  ( <= ( + Y0 31 ) Y9 )  ( <= ( + Y9 8 ) Y0 )  )
( or ( <= ( + X0 36 ) X10 )  ( <= ( + X10 5 ) X0 )  ( <= ( + Y0 31 ) Y10 )  ( <= ( + Y10 85 ) Y0 )  )
( or ( <= ( + X0 36 ) X11 )  ( <= ( + X11 81 ) X0 )  ( <= ( + Y0 31 ) Y11 )  ( <= ( + Y11 72 ) Y0 )  )
( or ( <= ( + X0 36 ) X12 )  ( <= ( + X12 50 ) X0 )  ( <= ( + Y0 31 ) Y12 )  ( <= ( + Y12 74 ) Y0 )  )
( or ( <= ( + X0 36 ) X13 )  ( <= ( + X13 2 ) X0 )  ( <= ( + Y0 31 ) Y13 )  ( <= ( + Y13 72 ) Y0 )  )
( or ( <= ( + X0 36 ) X14 )  ( <= ( + X14 40 ) X0 )  ( <= ( + Y0 31 ) Y14 )  ( <= ( + Y14 49 ) Y0 )  )
( or ( <= ( + X0 36 ) X15 )  ( <= ( + X15 49 ) X0 )  ( <= ( + Y0 31 ) Y15 )  ( <= ( + Y15 90 ) Y0 )  )
( or ( <= ( + X0 36 ) X16 )  ( <= ( + X16 34 ) X0 )  ( <= ( + Y0 31 ) Y16 )  ( <= ( + Y16 21 ) Y0 )  )
( or ( <= ( + X0 36 ) X17 )  ( <= ( + X17 2 ) X0 )  ( <= ( + Y0 31 ) Y17 )  ( <= ( + Y17 91 ) Y0 )  )
( or ( <= ( + X1 26 ) X2 )  ( <= ( + X2 65 ) X1 )  ( <= ( + Y1 80 ) Y2 )  ( <= ( + Y2 29 ) Y1 )  )
( or ( <= ( + X1 26 ) X3 )  ( <= ( + X3 50 ) X1 )  ( <= ( + Y1 80 ) Y3 )  ( <= ( + Y3 62 ) Y1 )  )
( or ( <= ( + X1 26 ) X4 )  ( <= ( + X4 91 ) X1 )  ( <= ( + Y1 80 ) Y4 )  ( <= ( + Y4 41 ) Y1 )  )
( or ( <= ( + X1 26 ) X5 )  ( <= ( + X5 51 ) X1 )  ( <= ( + Y1 80 ) Y5 )  ( <= ( + Y5 78 ) Y1 )  )
( or ( <= ( + X1 26 ) X6 )  ( <= ( + X6 60 ) X1 )  ( <= ( + Y1 80 ) Y6 )  ( <= ( + Y6 66 ) Y1 )  )
( or ( <= ( + X1 26 ) X7 )  ( <= ( + X7 22 ) X1 )  ( <= ( + Y1 80 ) Y7 )  ( <= ( + Y7 69 ) Y1 )  )
( or ( <= ( + X1 26 ) X8 )  ( <= ( + X8 74 ) X1 )  ( <= ( + Y1 80 ) Y8 )  ( <= ( + Y8 28 ) Y1 )  )
( or ( <= ( + X1 26 ) X9 )  ( <= ( + X9 27 ) X1 )  ( <= ( + Y1 80 ) Y9 )  ( <= ( + Y9 8 ) Y1 )  )
( or ( <= ( + X1 26 ) X10 )  ( <= ( + X10 5 ) X1 )  ( <= ( + Y1 80 ) Y10 )  ( <= ( + Y10 85 ) Y1 )  )
( or ( <= ( + X1 26 ) X11 )  ( <= ( + X11 81 ) X1 )  ( <= ( + Y1 80 ) Y11 )  ( <= ( + Y11 72 ) Y1 )  )
( or ( <= ( + X1 26 ) X12 )  ( <= ( + X12 50 ) X1 )  ( <= ( + Y1 80 ) Y12 )  ( <= ( + Y12 74 ) Y1 )  )
( or ( <= ( + X1 26 ) X13 )  ( <= ( + X13 2 ) X1 )  ( <= ( + Y1 80 ) Y13 )  ( <= ( + Y13 72 ) Y1 )  )
( or ( <= ( + X1 26 ) X14 )  ( <= ( + X14 40 ) X1 )  ( <= ( + Y1 80 ) Y14 )  ( <= ( + Y14 49 ) Y1 )  )
( or ( <= ( + X1 26 ) X15 )  ( <= ( + X15 49 ) X1 )  ( <= ( + Y1 80 ) Y15 )  ( <= ( + Y15 90 ) Y1 )  )
( or ( <= ( + X1 26 ) X16 )  ( <= ( + X16 34 ) X1 )  ( <= ( + Y1 80 ) Y16 )  ( <= ( + Y16 21 ) Y1 )  )
( or ( <= ( + X1 26 ) X17 )  ( <= ( + X17 2 ) X1 )  ( <= ( + Y1 80 ) Y17 )  ( <= ( + Y17 91 ) Y1 )  )
( or ( <= ( + X2 65 ) X3 )  ( <= ( + X3 50 ) X2 )  ( <= ( + Y2 29 ) Y3 )  ( <= ( + Y3 62 ) Y2 )  )
( or ( <= ( + X2 65 ) X4 )  ( <= ( + X4 91 ) X2 )  ( <= ( + Y2 29 ) Y4 )  ( <= ( + Y4 41 ) Y2 )  )
( or ( <= ( + X2 65 ) X5 )  ( <= ( + X5 51 ) X2 )  ( <= ( + Y2 29 ) Y5 )  ( <= ( + Y5 78 ) Y2 )  )
( or ( <= ( + X2 65 ) X6 )  ( <= ( + X6 60 ) X2 )  ( <= ( + Y2 29 ) Y6 )  ( <= ( + Y6 66 ) Y2 )  )
( or ( <= ( + X2 65 ) X7 )  ( <= ( + X7 22 ) X2 )  ( <= ( + Y2 29 ) Y7 )  ( <= ( + Y7 69 ) Y2 )  )
( or ( <= ( + X2 65 ) X8 )  ( <= ( + X8 74 ) X2 )  ( <= ( + Y2 29 ) Y8 )  ( <= ( + Y8 28 ) Y2 )  )
( or ( <= ( + X2 65 ) X9 )  ( <= ( + X9 27 ) X2 )  ( <= ( + Y2 29 ) Y9 )  ( <= ( + Y9 8 ) Y2 )  )
( or ( <= ( + X2 65 ) X10 )  ( <= ( + X10 5 ) X2 )  ( <= ( + Y2 29 ) Y10 )  ( <= ( + Y10 85 ) Y2 )  )
( or ( <= ( + X2 65 ) X11 )  ( <= ( + X11 81 ) X2 )  ( <= ( + Y2 29 ) Y11 )  ( <= ( + Y11 72 ) Y2 )  )
( or ( <= ( + X2 65 ) X12 )  ( <= ( + X12 50 ) X2 )  ( <= ( + Y2 29 ) Y12 )  ( <= ( + Y12 74 ) Y2 )  )
( or ( <= ( + X2 65 ) X13 )  ( <= ( + X13 2 ) X2 )  ( <= ( + Y2 29 ) Y13 )  ( <= ( + Y13 72 ) Y2 )  )
( or ( <= ( + X2 65 ) X14 )  ( <= ( + X14 40 ) X2 )  ( <= ( + Y2 29 ) Y14 )  ( <= ( + Y14 49 ) Y2 )  )
( or ( <= ( + X2 65 ) X15 )  ( <= ( + X15 49 ) X2 )  ( <= ( + Y2 29 ) Y15 )  ( <= ( + Y15 90 ) Y2 )  )
( or ( <= ( + X2 65 ) X16 )  ( <= ( + X16 34 ) X2 )  ( <= ( + Y2 29 ) Y16 )  ( <= ( + Y16 21 ) Y2 )  )
( or ( <= ( + X2 65 ) X17 )  ( <= ( + X17 2 ) X2 )  ( <= ( + Y2 29 ) Y17 )  ( <= ( + Y17 91 ) Y2 )  )
( or ( <= ( + X3 50 ) X4 )  ( <= ( + X4 91 ) X3 )  ( <= ( + Y3 62 ) Y4 )  ( <= ( + Y4 41 ) Y3 )  )
( or ( <= ( + X3 50 ) X5 )  ( <= ( + X5 51 ) X3 )  ( <= ( + Y3 62 ) Y5 )  ( <= ( + Y5 78 ) Y3 )  )
( or ( <= ( + X3 50 ) X6 )  ( <= ( + X6 60 ) X3 )  ( <= ( + Y3 62 ) Y6 )  ( <= ( + Y6 66 ) Y3 )  )
( or ( <= ( + X3 50 ) X7 )  ( <= ( + X7 22 ) X3 )  ( <= ( + Y3 62 ) Y7 )  ( <= ( + Y7 69 ) Y3 )  )
( or ( <= ( + X3 50 ) X8 )  ( <= ( + X8 74 ) X3 )  ( <= ( + Y3 62 ) Y8 )  ( <= ( + Y8 28 ) Y3 )  )
( or ( <= ( + X3 50 ) X9 )  ( <= ( + X9 27 ) X3 )  ( <= ( + Y3 62 ) Y9 )  ( <= ( + Y9 8 ) Y3 )  )
( or ( <= ( + X3 50 ) X10 )  ( <= ( + X10 5 ) X3 )  ( <= ( + Y3 62 ) Y10 )  ( <= ( + Y10 85 ) Y3 )  )
( or ( <= ( + X3 50 ) X11 )  ( <= ( + X11 81 ) X3 )  ( <= ( + Y3 62 ) Y11 )  ( <= ( + Y11 72 ) Y3 )  )
( or ( <= ( + X3 50 ) X12 )  ( <= ( + X12 50 ) X3 )  ( <= ( + Y3 62 ) Y12 )  ( <= ( + Y12 74 ) Y3 )  )
( or ( <= ( + X3 50 ) X13 )  ( <= ( + X13 2 ) X3 )  ( <= ( + Y3 62 ) Y13 )  ( <= ( + Y13 72 ) Y3 )  )
( or ( <= ( + X3 50 ) X14 )  ( <= ( + X14 40 ) X3 )  ( <= ( + Y3 62 ) Y14 )  ( <= ( + Y14 49 ) Y3 )  )
( or ( <= ( + X3 50 ) X15 )  ( <= ( + X15 49 ) X3 )  ( <= ( + Y3 62 ) Y15 )  ( <= ( + Y15 90 ) Y3 )  )
( or ( <= ( + X3 50 ) X16 )  ( <= ( + X16 34 ) X3 )  ( <= ( + Y3 62 ) Y16 )  ( <= ( + Y16 21 ) Y3 )  )
( or ( <= ( + X3 50 ) X17 )  ( <= ( + X17 2 ) X3 )  ( <= ( + Y3 62 ) Y17 )  ( <= ( + Y17 91 ) Y3 )  )
( or ( <= ( + X4 91 ) X5 )  ( <= ( + X5 51 ) X4 )  ( <= ( + Y4 41 ) Y5 )  ( <= ( + Y5 78 ) Y4 )  )
( or ( <= ( + X4 91 ) X6 )  ( <= ( + X6 60 ) X4 )  ( <= ( + Y4 41 ) Y6 )  ( <= ( + Y6 66 ) Y4 )  )
( or ( <= ( + X4 91 ) X7 )  ( <= ( + X7 22 ) X4 )  ( <= ( + Y4 41 ) Y7 )  ( <= ( + Y7 69 ) Y4 )  )
( or ( <= ( + X4 91 ) X8 )  ( <= ( + X8 74 ) X4 )  ( <= ( + Y4 41 ) Y8 )  ( <= ( + Y8 28 ) Y4 )  )
( or ( <= ( + X4 91 ) X9 )  ( <= ( + X9 27 ) X4 )  ( <= ( + Y4 41 ) Y9 )  ( <= ( + Y9 8 ) Y4 )  )
( or ( <= ( + X4 91 ) X10 )  ( <= ( + X10 5 ) X4 )  ( <= ( + Y4 41 ) Y10 )  ( <= ( + Y10 85 ) Y4 )  )
( or ( <= ( + X4 91 ) X11 )  ( <= ( + X11 81 ) X4 )  ( <= ( + Y4 41 ) Y11 )  ( <= ( + Y11 72 ) Y4 )  )
( or ( <= ( + X4 91 ) X12 )  ( <= ( + X12 50 ) X4 )  ( <= ( + Y4 41 ) Y12 )  ( <= ( + Y12 74 ) Y4 )  )
( or ( <= ( + X4 91 ) X13 )  ( <= ( + X13 2 ) X4 )  ( <= ( + Y4 41 ) Y13 )  ( <= ( + Y13 72 ) Y4 )  )
( or ( <= ( + X4 91 ) X14 )  ( <= ( + X14 40 ) X4 )  ( <= ( + Y4 41 ) Y14 )  ( <= ( + Y14 49 ) Y4 )  )
( or ( <= ( + X4 91 ) X15 )  ( <= ( + X15 49 ) X4 )  ( <= ( + Y4 41 ) Y15 )  ( <= ( + Y15 90 ) Y4 )  )
( or ( <= ( + X4 91 ) X16 )  ( <= ( + X16 34 ) X4 )  ( <= ( + Y4 41 ) Y16 )  ( <= ( + Y16 21 ) Y4 )  )
( or ( <= ( + X4 91 ) X17 )  ( <= ( + X17 2 ) X4 )  ( <= ( + Y4 41 ) Y17 )  ( <= ( + Y17 91 ) Y4 )  )
( or ( <= ( + X5 51 ) X6 )  ( <= ( + X6 60 ) X5 )  ( <= ( + Y5 78 ) Y6 )  ( <= ( + Y6 66 ) Y5 )  )
( or ( <= ( + X5 51 ) X7 )  ( <= ( + X7 22 ) X5 )  ( <= ( + Y5 78 ) Y7 )  ( <= ( + Y7 69 ) Y5 )  )
( or ( <= ( + X5 51 ) X8 )  ( <= ( + X8 74 ) X5 )  ( <= ( + Y5 78 ) Y8 )  ( <= ( + Y8 28 ) Y5 )  )
( or ( <= ( + X5 51 ) X9 )  ( <= ( + X9 27 ) X5 )  ( <= ( + Y5 78 ) Y9 )  ( <= ( + Y9 8 ) Y5 )  )
( or ( <= ( + X5 51 ) X10 )  ( <= ( + X10 5 ) X5 )  ( <= ( + Y5 78 ) Y10 )  ( <= ( + Y10 85 ) Y5 )  )
( or ( <= ( + X5 51 ) X11 )  ( <= ( + X11 81 ) X5 )  ( <= ( + Y5 78 ) Y11 )  ( <= ( + Y11 72 ) Y5 )  )
( or ( <= ( + X5 51 ) X12 )  ( <= ( + X12 50 ) X5 )  ( <= ( + Y5 78 ) Y12 )  ( <= ( + Y12 74 ) Y5 )  )
( or ( <= ( + X5 51 ) X13 )  ( <= ( + X13 2 ) X5 )  ( <= ( + Y5 78 ) Y13 )  ( <= ( + Y13 72 ) Y5 )  )
( or ( <= ( + X5 51 ) X14 )  ( <= ( + X14 40 ) X5 )  ( <= ( + Y5 78 ) Y14 )  ( <= ( + Y14 49 ) Y5 )  )
( or ( <= ( + X5 51 ) X15 )  ( <= ( + X15 49 ) X5 )  ( <= ( + Y5 78 ) Y15 )  ( <= ( + Y15 90 ) Y5 )  )
( or ( <= ( + X5 51 ) X16 )  ( <= ( + X16 34 ) X5 )  ( <= ( + Y5 78 ) Y16 )  ( <= ( + Y16 21 ) Y5 )  )
( or ( <= ( + X5 51 ) X17 )  ( <= ( + X17 2 ) X5 )  ( <= ( + Y5 78 ) Y17 )  ( <= ( + Y17 91 ) Y5 )  )
( or ( <= ( + X6 60 ) X7 )  ( <= ( + X7 22 ) X6 )  ( <= ( + Y6 66 ) Y7 )  ( <= ( + Y7 69 ) Y6 )  )
( or ( <= ( + X6 60 ) X8 )  ( <= ( + X8 74 ) X6 )  ( <= ( + Y6 66 ) Y8 )  ( <= ( + Y8 28 ) Y6 )  )
( or ( <= ( + X6 60 ) X9 )  ( <= ( + X9 27 ) X6 )  ( <= ( + Y6 66 ) Y9 )  ( <= ( + Y9 8 ) Y6 )  )
( or ( <= ( + X6 60 ) X10 )  ( <= ( + X10 5 ) X6 )  ( <= ( + Y6 66 ) Y10 )  ( <= ( + Y10 85 ) Y6 )  )
( or ( <= ( + X6 60 ) X11 )  ( <= ( + X11 81 ) X6 )  ( <= ( + Y6 66 ) Y11 )  ( <= ( + Y11 72 ) Y6 )  )
( or ( <= ( + X6 60 ) X12 )  ( <= ( + X12 50 ) X6 )  ( <= ( + Y6 66 ) Y12 )  ( <= ( + Y12 74 ) Y6 )  )
( or ( <= ( + X6 60 ) X13 )  ( <= ( + X13 2 ) X6 )  ( <= ( + Y6 66 ) Y13 )  ( <= ( + Y13 72 ) Y6 )  )
( or ( <= ( + X6 60 ) X14 )  ( <= ( + X14 40 ) X6 )  ( <= ( + Y6 66 ) Y14 )  ( <= ( + Y14 49 ) Y6 )  )
( or ( <= ( + X6 60 ) X15 )  ( <= ( + X15 49 ) X6 )  ( <= ( + Y6 66 ) Y15 )  ( <= ( + Y15 90 ) Y6 )  )
( or ( <= ( + X6 60 ) X16 )  ( <= ( + X16 34 ) X6 )  ( <= ( + Y6 66 ) Y16 )  ( <= ( + Y16 21 ) Y6 )  )
( or ( <= ( + X6 60 ) X17 )  ( <= ( + X17 2 ) X6 )  ( <= ( + Y6 66 ) Y17 )  ( <= ( + Y17 91 ) Y6 )  )
( or ( <= ( + X7 22 ) X8 )  ( <= ( + X8 74 ) X7 )  ( <= ( + Y7 69 ) Y8 )  ( <= ( + Y8 28 ) Y7 )  )
( or ( <= ( + X7 22 ) X9 )  ( <= ( + X9 27 ) X7 )  ( <= ( + Y7 69 ) Y9 )  ( <= ( + Y9 8 ) Y7 )  )
( or ( <= ( + X7 22 ) X10 )  ( <= ( + X10 5 ) X7 )  ( <= ( + Y7 69 ) Y10 )  ( <= ( + Y10 85 ) Y7 )  )
( or ( <= ( + X7 22 ) X11 )  ( <= ( + X11 81 ) X7 )  ( <= ( + Y7 69 ) Y11 )  ( <= ( + Y11 72 ) Y7 )  )
( or ( <= ( + X7 22 ) X12 )  ( <= ( + X12 50 ) X7 )  ( <= ( + Y7 69 ) Y12 )  ( <= ( + Y12 74 ) Y7 )  )
( or ( <= ( + X7 22 ) X13 )  ( <= ( + X13 2 ) X7 )  ( <= ( + Y7 69 ) Y13 )  ( <= ( + Y13 72 ) Y7 )  )
( or ( <= ( + X7 22 ) X14 )  ( <= ( + X14 40 ) X7 )  ( <= ( + Y7 69 ) Y14 )  ( <= ( + Y14 49 ) Y7 )  )
( or ( <= ( + X7 22 ) X15 )  ( <= ( + X15 49 ) X7 )  ( <= ( + Y7 69 ) Y15 )  ( <= ( + Y15 90 ) Y7 )  )
( or ( <= ( + X7 22 ) X16 )  ( <= ( + X16 34 ) X7 )  ( <= ( + Y7 69 ) Y16 )  ( <= ( + Y16 21 ) Y7 )  )
( or ( <= ( + X7 22 ) X17 )  ( <= ( + X17 2 ) X7 )  ( <= ( + Y7 69 ) Y17 )  ( <= ( + Y17 91 ) Y7 )  )
( or ( <= ( + X8 74 ) X9 )  ( <= ( + X9 27 ) X8 )  ( <= ( + Y8 28 ) Y9 )  ( <= ( + Y9 8 ) Y8 )  )
( or ( <= ( + X8 74 ) X10 )  ( <= ( + X10 5 ) X8 )  ( <= ( + Y8 28 ) Y10 )  ( <= ( + Y10 85 ) Y8 )  )
( or ( <= ( + X8 74 ) X11 )  ( <= ( + X11 81 ) X8 )  ( <= ( + Y8 28 ) Y11 )  ( <= ( + Y11 72 ) Y8 )  )
( or ( <= ( + X8 74 ) X12 )  ( <= ( + X12 50 ) X8 )  ( <= ( + Y8 28 ) Y12 )  ( <= ( + Y12 74 ) Y8 )  )
( or ( <= ( + X8 74 ) X13 )  ( <= ( + X13 2 ) X8 )  ( <= ( + Y8 28 ) Y13 )  ( <= ( + Y13 72 ) Y8 )  )
( or ( <= ( + X8 74 ) X14 )  ( <= ( + X14 40 ) X8 )  ( <= ( + Y8 28 ) Y14 )  ( <= ( + Y14 49 ) Y8 )  )
( or ( <= ( + X8 74 ) X15 )  ( <= ( + X15 49 ) X8 )  ( <= ( + Y8 28 ) Y15 )  ( <= ( + Y15 90 ) Y8 )  )
( or ( <= ( + X8 74 ) X16 )  ( <= ( + X16 34 ) X8 )  ( <= ( + Y8 28 ) Y16 )  ( <= ( + Y16 21 ) Y8 )  )
( or ( <= ( + X8 74 ) X17 )  ( <= ( + X17 2 ) X8 )  ( <= ( + Y8 28 ) Y17 )  ( <= ( + Y17 91 ) Y8 )  )
( or ( <= ( + X9 27 ) X10 )  ( <= ( + X10 5 ) X9 )  ( <= ( + Y9 8 ) Y10 )  ( <= ( + Y10 85 ) Y9 )  )
( or ( <= ( + X9 27 ) X11 )  ( <= ( + X11 81 ) X9 )  ( <= ( + Y9 8 ) Y11 )  ( <= ( + Y11 72 ) Y9 )  )
( or ( <= ( + X9 27 ) X12 )  ( <= ( + X12 50 ) X9 )  ( <= ( + Y9 8 ) Y12 )  ( <= ( + Y12 74 ) Y9 )  )
( or ( <= ( + X9 27 ) X13 )  ( <= ( + X13 2 ) X9 )  ( <= ( + Y9 8 ) Y13 )  ( <= ( + Y13 72 ) Y9 )  )
( or ( <= ( + X9 27 ) X14 )  ( <= ( + X14 40 ) X9 )  ( <= ( + Y9 8 ) Y14 )  ( <= ( + Y14 49 ) Y9 )  )
( or ( <= ( + X9 27 ) X15 )  ( <= ( + X15 49 ) X9 )  ( <= ( + Y9 8 ) Y15 )  ( <= ( + Y15 90 ) Y9 )  )
( or ( <= ( + X9 27 ) X16 )  ( <= ( + X16 34 ) X9 )  ( <= ( + Y9 8 ) Y16 )  ( <= ( + Y16 21 ) Y9 )  )
( or ( <= ( + X9 27 ) X17 )  ( <= ( + X17 2 ) X9 )  ( <= ( + Y9 8 ) Y17 )  ( <= ( + Y17 91 ) Y9 )  )
( or ( <= ( + X10 5 ) X11 )  ( <= ( + X11 81 ) X10 )  ( <= ( + Y10 85 ) Y11 )  ( <= ( + Y11 72 ) Y10 )  )
( or ( <= ( + X10 5 ) X12 )  ( <= ( + X12 50 ) X10 )  ( <= ( + Y10 85 ) Y12 )  ( <= ( + Y12 74 ) Y10 )  )
( or ( <= ( + X10 5 ) X13 )  ( <= ( + X13 2 ) X10 )  ( <= ( + Y10 85 ) Y13 )  ( <= ( + Y13 72 ) Y10 )  )
( or ( <= ( + X10 5 ) X14 )  ( <= ( + X14 40 ) X10 )  ( <= ( + Y10 85 ) Y14 )  ( <= ( + Y14 49 ) Y10 )  )
( or ( <= ( + X10 5 ) X15 )  ( <= ( + X15 49 ) X10 )  ( <= ( + Y10 85 ) Y15 )  ( <= ( + Y15 90 ) Y10 )  )
( or ( <= ( + X10 5 ) X16 )  ( <= ( + X16 34 ) X10 )  ( <= ( + Y10 85 ) Y16 )  ( <= ( + Y16 21 ) Y10 )  )
( or ( <= ( + X10 5 ) X17 )  ( <= ( + X17 2 ) X10 )  ( <= ( + Y10 85 ) Y17 )  ( <= ( + Y17 91 ) Y10 )  )
( or ( <= ( + X11 81 ) X12 )  ( <= ( + X12 50 ) X11 )  ( <= ( + Y11 72 ) Y12 )  ( <= ( + Y12 74 ) Y11 )  )
( or ( <= ( + X11 81 ) X13 )  ( <= ( + X13 2 ) X11 )  ( <= ( + Y11 72 ) Y13 )  ( <= ( + Y13 72 ) Y11 )  )
( or ( <= ( + X11 81 ) X14 )  ( <= ( + X14 40 ) X11 )  ( <= ( + Y11 72 ) Y14 )  ( <= ( + Y14 49 ) Y11 )  )
( or ( <= ( + X11 81 ) X15 )  ( <= ( + X15 49 ) X11 )  ( <= ( + Y11 72 ) Y15 )  ( <= ( + Y15 90 ) Y11 )  )
( or ( <= ( + X11 81 ) X16 )  ( <= ( + X16 34 ) X11 )  ( <= ( + Y11 72 ) Y16 )  ( <= ( + Y16 21 ) Y11 )  )
( or ( <= ( + X11 81 ) X17 )  ( <= ( + X17 2 ) X11 )  ( <= ( + Y11 72 ) Y17 )  ( <= ( + Y17 91 ) Y11 )  )
( or ( <= ( + X12 50 ) X13 )  ( <= ( + X13 2 ) X12 )  ( <= ( + Y12 74 ) Y13 )  ( <= ( + Y13 72 ) Y12 )  )
( or ( <= ( + X12 50 ) X14 )  ( <= ( + X14 40 ) X12 )  ( <= ( + Y12 74 ) Y14 )  ( <= ( + Y14 49 ) Y12 )  )
( or ( <= ( + X12 50 ) X15 )  ( <= ( + X15 49 ) X12 )  ( <= ( + Y12 74 ) Y15 )  ( <= ( + Y15 90 ) Y12 )  )
( or ( <= ( + X12 50 ) X16 )  ( <= ( + X16 34 ) X12 )  ( <= ( + Y12 74 ) Y16 )  ( <= ( + Y16 21 ) Y12 )  )
( or ( <= ( + X12 50 ) X17 )  ( <= ( + X17 2 ) X12 )  ( <= ( + Y12 74 ) Y17 )  ( <= ( + Y17 91 ) Y12 )  )
( or ( <= ( + X13 2 ) X14 )  ( <= ( + X14 40 ) X13 )  ( <= ( + Y13 72 ) Y14 )  ( <= ( + Y14 49 ) Y13 )  )
( or ( <= ( + X13 2 ) X15 )  ( <= ( + X15 49 ) X13 )  ( <= ( + Y13 72 ) Y15 )  ( <= ( + Y15 90 ) Y13 )  )
( or ( <= ( + X13 2 ) X16 )  ( <= ( + X16 34 ) X13 )  ( <= ( + Y13 72 ) Y16 )  ( <= ( + Y16 21 ) Y13 )  )
( or ( <= ( + X13 2 ) X17 )  ( <= ( + X17 2 ) X13 )  ( <= ( + Y13 72 ) Y17 )  ( <= ( + Y17 91 ) Y13 )  )
( or ( <= ( + X14 40 ) X15 )  ( <= ( + X15 49 ) X14 )  ( <= ( + Y14 49 ) Y15 )  ( <= ( + Y15 90 ) Y14 )  )
( or ( <= ( + X14 40 ) X16 )  ( <= ( + X16 34 ) X14 )  ( <= ( + Y14 49 ) Y16 )  ( <= ( + Y16 21 ) Y14 )  )
( or ( <= ( + X14 40 ) X17 )  ( <= ( + X17 2 ) X14 )  ( <= ( + Y14 49 ) Y17 )  ( <= ( + Y17 91 ) Y14 )  )
( or ( <= ( + X15 49 ) X16 )  ( <= ( + X16 34 ) X15 )  ( <= ( + Y15 90 ) Y16 )  ( <= ( + Y16 21 ) Y15 )  )
( or ( <= ( + X15 49 ) X17 )  ( <= ( + X17 2 ) X15 )  ( <= ( + Y15 90 ) Y17 )  ( <= ( + Y17 91 ) Y15 )  )
( or ( <= ( + X16 34 ) X17 )  ( <= ( + X17 2 ) X16 )  ( <= ( + Y16 21 ) Y17 )  ( <= ( + Y17 91 ) Y16 )  )
( >= X0 0)
( <= ( + X0 36) Z)
( >= Y0 0)
( <= ( + Y0 31 ) 212)
( >= X1 0)
( <= ( + X1 26) Z)
( >= Y1 0)
( <= ( + Y1 80 ) 212)
( >= X2 0)
( <= ( + X2 65) Z)
( >= Y2 0)
( <= ( + Y2 29 ) 212)
( >= X3 0)
( <= ( + X3 50) Z)
( >= Y3 0)
( <= ( + Y3 62 ) 212)
( >= X4 0)
( <= ( + X4 91) Z)
( >= Y4 0)
( <= ( + Y4 41 ) 212)
( >= X5 0)
( <= ( + X5 51) Z)
( >= Y5 0)
( <= ( + Y5 78 ) 212)
( >= X6 0)
( <= ( + X6 60) Z)
( >= Y6 0)
( <= ( + Y6 66 ) 212)
( >= X7 0)
( <= ( + X7 22) Z)
( >= Y7 0)
( <= ( + Y7 69 ) 212)
( >= X8 0)
( <= ( + X8 74) Z)
( >= Y8 0)
( <= ( + Y8 28 ) 212)
( >= X9 0)
( <= ( + X9 27) Z)
( >= Y9 0)
( <= ( + Y9 8 ) 212)
( >= X10 0)
( <= ( + X10 5) Z)
( >= Y10 0)
( <= ( + Y10 85 ) 212)
( >= X11 0)
( <= ( + X11 81) Z)
( >= Y11 0)
( <= ( + Y11 72 ) 212)
( >= X12 0)
( <= ( + X12 50) Z)
( >= Y12 0)
( <= ( + Y12 74 ) 212)
( >= X13 0)
( <= ( + X13 2) Z)
( >= Y13 0)
( <= ( + Y13 72 ) 212)
( >= X14 0)
( <= ( + X14 40) Z)
( >= Y14 0)
( <= ( + Y14 49 ) 212)
( >= X15 0)
( <= ( + X15 49) Z)
( >= Y15 0)
( <= ( + Y15 90 ) 212)
( >= X16 0)
( <= ( + X16 34) Z)
( >= Y16 0)
( <= ( + Y16 21 ) 212)
( >= X17 0)
( <= ( + X17 2) Z)
( >= Y17 0)
( <= ( + Y17 91 ) 212)
) )
(minimize Z)
(check-sat)
